c  created by ray
c
c
c
c		0101.0
c		.0100.
c		.1001.
c		1101..
c		00101.
c		..1100
c
c
c
p cnf 576 2132
-561 -564 -567 -570 -573 -576 0
574 575 -576 0
-575 576 0
-574 576 0
35 36 575 0
-36 -575 0
-35 -575 0
-35 -36 574 0
36 -574 0
35 -574 0
571 572 -573 0
-572 573 0
-571 573 0
29 30 572 0
-30 -572 0
-29 -572 0
-29 -30 571 0
30 -571 0
29 -571 0
568 569 -570 0
-569 570 0
-568 570 0
23 24 569 0
-24 -569 0
-23 -569 0
-23 -24 568 0
24 -568 0
23 -568 0
565 566 -567 0
-566 567 0
-565 567 0
17 18 566 0
-18 -566 0
-17 -566 0
-17 -18 565 0
18 -565 0
17 -565 0
562 563 -564 0
-563 564 0
-562 564 0
11 12 563 0
-12 -563 0
-11 -563 0
-11 -12 562 0
12 -562 0
11 -562 0
559 560 -561 0
-560 561 0
-559 561 0
5 6 560 0
-6 -560 0
-5 -560 0
-5 -6 559 0
6 -559 0
5 -559 0
-543 -546 -549 -552 -555 -558 0
556 557 -558 0
-557 558 0
-556 558 0
30 36 557 0
-36 -557 0
-30 -557 0
-30 -36 556 0
36 -556 0
30 -556 0
553 554 -555 0
-554 555 0
-553 555 0
29 35 554 0
-35 -554 0
-29 -554 0
-29 -35 553 0
35 -553 0
29 -553 0
550 551 -552 0
-551 552 0
-550 552 0
28 34 551 0
-34 -551 0
-28 -551 0
-28 -34 550 0
34 -550 0
28 -550 0
547 548 -549 0
-548 549 0
-547 549 0
27 33 548 0
-33 -548 0
-27 -548 0
-27 -33 547 0
33 -547 0
27 -547 0
544 545 -546 0
-545 546 0
-544 546 0
26 32 545 0
-32 -545 0
-26 -545 0
-26 -32 544 0
32 -544 0
26 -544 0
541 542 -543 0
-542 543 0
-541 543 0
25 31 542 0
-31 -542 0
-25 -542 0
-25 -31 541 0
31 -541 0
25 -541 0
-525 -528 -531 -534 -537 -540 0
538 539 -540 0
-539 540 0
-538 540 0
34 36 539 0
-36 -539 0
-34 -539 0
-34 -36 538 0
36 -538 0
34 -538 0
535 536 -537 0
-536 537 0
-535 537 0
28 30 536 0
-30 -536 0
-28 -536 0
-28 -30 535 0
30 -535 0
28 -535 0
532 533 -534 0
-533 534 0
-532 534 0
22 24 533 0
-24 -533 0
-22 -533 0
-22 -24 532 0
24 -532 0
22 -532 0
529 530 -531 0
-530 531 0
-529 531 0
16 18 530 0
-18 -530 0
-16 -530 0
-16 -18 529 0
18 -529 0
16 -529 0
526 527 -528 0
-527 528 0
-526 528 0
10 12 527 0
-12 -527 0
-10 -527 0
-10 -12 526 0
12 -526 0
10 -526 0
523 524 -525 0
-524 525 0
-523 525 0
4 6 524 0
-6 -524 0
-4 -524 0
-4 -6 523 0
6 -523 0
4 -523 0
-507 -510 -513 -516 -519 -522 0
520 521 -522 0
-521 522 0
-520 522 0
24 36 521 0
-36 -521 0
-24 -521 0
-24 -36 520 0
36 -520 0
24 -520 0
517 518 -519 0
-518 519 0
-517 519 0
23 35 518 0
-35 -518 0
-23 -518 0
-23 -35 517 0
35 -517 0
23 -517 0
514 515 -516 0
-515 516 0
-514 516 0
22 34 515 0
-34 -515 0
-22 -515 0
-22 -34 514 0
34 -514 0
22 -514 0
511 512 -513 0
-512 513 0
-511 513 0
21 33 512 0
-33 -512 0
-21 -512 0
-21 -33 511 0
33 -511 0
21 -511 0
508 509 -510 0
-509 510 0
-508 510 0
20 32 509 0
-32 -509 0
-20 -509 0
-20 -32 508 0
32 -508 0
20 -508 0
505 506 -507 0
-506 507 0
-505 507 0
19 31 506 0
-31 -506 0
-19 -506 0
-19 -31 505 0
31 -505 0
19 -505 0
-489 -492 -495 -498 -501 -504 0
502 503 -504 0
-503 504 0
-502 504 0
34 35 503 0
-35 -503 0
-34 -503 0
-34 -35 502 0
35 -502 0
34 -502 0
499 500 -501 0
-500 501 0
-499 501 0
28 29 500 0
-29 -500 0
-28 -500 0
-28 -29 499 0
29 -499 0
28 -499 0
496 497 -498 0
-497 498 0
-496 498 0
22 23 497 0
-23 -497 0
-22 -497 0
-22 -23 496 0
23 -496 0
22 -496 0
493 494 -495 0
-494 495 0
-493 495 0
16 17 494 0
-17 -494 0
-16 -494 0
-16 -17 493 0
17 -493 0
16 -493 0
490 491 -492 0
-491 492 0
-490 492 0
10 11 491 0
-11 -491 0
-10 -491 0
-10 -11 490 0
11 -490 0
10 -490 0
487 488 -489 0
-488 489 0
-487 489 0
4 5 488 0
-5 -488 0
-4 -488 0
-4 -5 487 0
5 -487 0
4 -487 0
-471 -474 -477 -480 -483 -486 0
484 485 -486 0
-485 486 0
-484 486 0
24 30 485 0
-30 -485 0
-24 -485 0
-24 -30 484 0
30 -484 0
24 -484 0
481 482 -483 0
-482 483 0
-481 483 0
23 29 482 0
-29 -482 0
-23 -482 0
-23 -29 481 0
29 -481 0
23 -481 0
478 479 -480 0
-479 480 0
-478 480 0
22 28 479 0
-28 -479 0
-22 -479 0
-22 -28 478 0
28 -478 0
22 -478 0
475 476 -477 0
-476 477 0
-475 477 0
21 27 476 0
-27 -476 0
-21 -476 0
-21 -27 475 0
27 -475 0
21 -475 0
472 473 -474 0
-473 474 0
-472 474 0
20 26 473 0
-26 -473 0
-20 -473 0
-20 -26 472 0
26 -472 0
20 -472 0
469 470 -471 0
-470 471 0
-469 471 0
19 25 470 0
-25 -470 0
-19 -470 0
-19 -25 469 0
25 -469 0
19 -469 0
-453 -456 -459 -462 -465 -468 0
466 467 -468 0
-467 468 0
-466 468 0
33 36 467 0
-36 -467 0
-33 -467 0
-33 -36 466 0
36 -466 0
33 -466 0
463 464 -465 0
-464 465 0
-463 465 0
27 30 464 0
-30 -464 0
-27 -464 0
-27 -30 463 0
30 -463 0
27 -463 0
460 461 -462 0
-461 462 0
-460 462 0
21 24 461 0
-24 -461 0
-21 -461 0
-21 -24 460 0
24 -460 0
21 -460 0
457 458 -459 0
-458 459 0
-457 459 0
15 18 458 0
-18 -458 0
-15 -458 0
-15 -18 457 0
18 -457 0
15 -457 0
454 455 -456 0
-455 456 0
-454 456 0
9 12 455 0
-12 -455 0
-9 -455 0
-9 -12 454 0
12 -454 0
9 -454 0
451 452 -453 0
-452 453 0
-451 453 0
3 6 452 0
-6 -452 0
-3 -452 0
-3 -6 451 0
6 -451 0
3 -451 0
-435 -438 -441 -444 -447 -450 0
448 449 -450 0
-449 450 0
-448 450 0
18 36 449 0
-36 -449 0
-18 -449 0
-18 -36 448 0
36 -448 0
18 -448 0
445 446 -447 0
-446 447 0
-445 447 0
17 35 446 0
-35 -446 0
-17 -446 0
-17 -35 445 0
35 -445 0
17 -445 0
442 443 -444 0
-443 444 0
-442 444 0
16 34 443 0
-34 -443 0
-16 -443 0
-16 -34 442 0
34 -442 0
16 -442 0
439 440 -441 0
-440 441 0
-439 441 0
15 33 440 0
-33 -440 0
-15 -440 0
-15 -33 439 0
33 -439 0
15 -439 0
436 437 -438 0
-437 438 0
-436 438 0
14 32 437 0
-32 -437 0
-14 -437 0
-14 -32 436 0
32 -436 0
14 -436 0
433 434 -435 0
-434 435 0
-433 435 0
13 31 434 0
-31 -434 0
-13 -434 0
-13 -31 433 0
31 -433 0
13 -433 0
-417 -420 -423 -426 -429 -432 0
430 431 -432 0
-431 432 0
-430 432 0
33 35 431 0
-35 -431 0
-33 -431 0
-33 -35 430 0
35 -430 0
33 -430 0
427 428 -429 0
-428 429 0
-427 429 0
27 29 428 0
-29 -428 0
-27 -428 0
-27 -29 427 0
29 -427 0
27 -427 0
424 425 -426 0
-425 426 0
-424 426 0
21 23 425 0
-23 -425 0
-21 -425 0
-21 -23 424 0
23 -424 0
21 -424 0
421 422 -423 0
-422 423 0
-421 423 0
15 17 422 0
-17 -422 0
-15 -422 0
-15 -17 421 0
17 -421 0
15 -421 0
418 419 -420 0
-419 420 0
-418 420 0
9 11 419 0
-11 -419 0
-9 -419 0
-9 -11 418 0
11 -418 0
9 -418 0
415 416 -417 0
-416 417 0
-415 417 0
3 5 416 0
-5 -416 0
-3 -416 0
-3 -5 415 0
5 -415 0
3 -415 0
-399 -402 -405 -408 -411 -414 0
412 413 -414 0
-413 414 0
-412 414 0
18 30 413 0
-30 -413 0
-18 -413 0
-18 -30 412 0
30 -412 0
18 -412 0
409 410 -411 0
-410 411 0
-409 411 0
17 29 410 0
-29 -410 0
-17 -410 0
-17 -29 409 0
29 -409 0
17 -409 0
406 407 -408 0
-407 408 0
-406 408 0
16 28 407 0
-28 -407 0
-16 -407 0
-16 -28 406 0
28 -406 0
16 -406 0
403 404 -405 0
-404 405 0
-403 405 0
15 27 404 0
-27 -404 0
-15 -404 0
-15 -27 403 0
27 -403 0
15 -403 0
400 401 -402 0
-401 402 0
-400 402 0
14 26 401 0
-26 -401 0
-14 -401 0
-14 -26 400 0
26 -400 0
14 -400 0
397 398 -399 0
-398 399 0
-397 399 0
13 25 398 0
-25 -398 0
-13 -398 0
-13 -25 397 0
25 -397 0
13 -397 0
-381 -384 -387 -390 -393 -396 0
394 395 -396 0
-395 396 0
-394 396 0
33 34 395 0
-34 -395 0
-33 -395 0
-33 -34 394 0
34 -394 0
33 -394 0
391 392 -393 0
-392 393 0
-391 393 0
27 28 392 0
-28 -392 0
-27 -392 0
-27 -28 391 0
28 -391 0
27 -391 0
388 389 -390 0
-389 390 0
-388 390 0
21 22 389 0
-22 -389 0
-21 -389 0
-21 -22 388 0
22 -388 0
21 -388 0
385 386 -387 0
-386 387 0
-385 387 0
15 16 386 0
-16 -386 0
-15 -386 0
-15 -16 385 0
16 -385 0
15 -385 0
382 383 -384 0
-383 384 0
-382 384 0
9 10 383 0
-10 -383 0
-9 -383 0
-9 -10 382 0
10 -382 0
9 -382 0
379 380 -381 0
-380 381 0
-379 381 0
3 4 380 0
-4 -380 0
-3 -380 0
-3 -4 379 0
4 -379 0
3 -379 0
-363 -366 -369 -372 -375 -378 0
376 377 -378 0
-377 378 0
-376 378 0
18 24 377 0
-24 -377 0
-18 -377 0
-18 -24 376 0
24 -376 0
18 -376 0
373 374 -375 0
-374 375 0
-373 375 0
17 23 374 0
-23 -374 0
-17 -374 0
-17 -23 373 0
23 -373 0
17 -373 0
370 371 -372 0
-371 372 0
-370 372 0
16 22 371 0
-22 -371 0
-16 -371 0
-16 -22 370 0
22 -370 0
16 -370 0
367 368 -369 0
-368 369 0
-367 369 0
15 21 368 0
-21 -368 0
-15 -368 0
-15 -21 367 0
21 -367 0
15 -367 0
364 365 -366 0
-365 366 0
-364 366 0
14 20 365 0
-20 -365 0
-14 -365 0
-14 -20 364 0
20 -364 0
14 -364 0
361 362 -363 0
-362 363 0
-361 363 0
13 19 362 0
-19 -362 0
-13 -362 0
-13 -19 361 0
19 -361 0
13 -361 0
-345 -348 -351 -354 -357 -360 0
358 359 -360 0
-359 360 0
-358 360 0
32 36 359 0
-36 -359 0
-32 -359 0
-32 -36 358 0
36 -358 0
32 -358 0
355 356 -357 0
-356 357 0
-355 357 0
26 30 356 0
-30 -356 0
-26 -356 0
-26 -30 355 0
30 -355 0
26 -355 0
352 353 -354 0
-353 354 0
-352 354 0
20 24 353 0
-24 -353 0
-20 -353 0
-20 -24 352 0
24 -352 0
20 -352 0
349 350 -351 0
-350 351 0
-349 351 0
14 18 350 0
-18 -350 0
-14 -350 0
-14 -18 349 0
18 -349 0
14 -349 0
346 347 -348 0
-347 348 0
-346 348 0
8 12 347 0
-12 -347 0
-8 -347 0
-8 -12 346 0
12 -346 0
8 -346 0
343 344 -345 0
-344 345 0
-343 345 0
2 6 344 0
-6 -344 0
-2 -344 0
-2 -6 343 0
6 -343 0
2 -343 0
-327 -330 -333 -336 -339 -342 0
340 341 -342 0
-341 342 0
-340 342 0
12 36 341 0
-36 -341 0
-12 -341 0
-12 -36 340 0
36 -340 0
12 -340 0
337 338 -339 0
-338 339 0
-337 339 0
11 35 338 0
-35 -338 0
-11 -338 0
-11 -35 337 0
35 -337 0
11 -337 0
334 335 -336 0
-335 336 0
-334 336 0
10 34 335 0
-34 -335 0
-10 -335 0
-10 -34 334 0
34 -334 0
10 -334 0
331 332 -333 0
-332 333 0
-331 333 0
9 33 332 0
-33 -332 0
-9 -332 0
-9 -33 331 0
33 -331 0
9 -331 0
328 329 -330 0
-329 330 0
-328 330 0
8 32 329 0
-32 -329 0
-8 -329 0
-8 -32 328 0
32 -328 0
8 -328 0
325 326 -327 0
-326 327 0
-325 327 0
7 31 326 0
-31 -326 0
-7 -326 0
-7 -31 325 0
31 -325 0
7 -325 0
-309 -312 -315 -318 -321 -324 0
322 323 -324 0
-323 324 0
-322 324 0
32 35 323 0
-35 -323 0
-32 -323 0
-32 -35 322 0
35 -322 0
32 -322 0
319 320 -321 0
-320 321 0
-319 321 0
26 29 320 0
-29 -320 0
-26 -320 0
-26 -29 319 0
29 -319 0
26 -319 0
316 317 -318 0
-317 318 0
-316 318 0
20 23 317 0
-23 -317 0
-20 -317 0
-20 -23 316 0
23 -316 0
20 -316 0
313 314 -315 0
-314 315 0
-313 315 0
14 17 314 0
-17 -314 0
-14 -314 0
-14 -17 313 0
17 -313 0
14 -313 0
310 311 -312 0
-311 312 0
-310 312 0
8 11 311 0
-11 -311 0
-8 -311 0
-8 -11 310 0
11 -310 0
8 -310 0
307 308 -309 0
-308 309 0
-307 309 0
2 5 308 0
-5 -308 0
-2 -308 0
-2 -5 307 0
5 -307 0
2 -307 0
-291 -294 -297 -300 -303 -306 0
304 305 -306 0
-305 306 0
-304 306 0
12 30 305 0
-30 -305 0
-12 -305 0
-12 -30 304 0
30 -304 0
12 -304 0
301 302 -303 0
-302 303 0
-301 303 0
11 29 302 0
-29 -302 0
-11 -302 0
-11 -29 301 0
29 -301 0
11 -301 0
298 299 -300 0
-299 300 0
-298 300 0
10 28 299 0
-28 -299 0
-10 -299 0
-10 -28 298 0
28 -298 0
10 -298 0
295 296 -297 0
-296 297 0
-295 297 0
9 27 296 0
-27 -296 0
-9 -296 0
-9 -27 295 0
27 -295 0
9 -295 0
292 293 -294 0
-293 294 0
-292 294 0
8 26 293 0
-26 -293 0
-8 -293 0
-8 -26 292 0
26 -292 0
8 -292 0
289 290 -291 0
-290 291 0
-289 291 0
7 25 290 0
-25 -290 0
-7 -290 0
-7 -25 289 0
25 -289 0
7 -289 0
-273 -276 -279 -282 -285 -288 0
286 287 -288 0
-287 288 0
-286 288 0
32 34 287 0
-34 -287 0
-32 -287 0
-32 -34 286 0
34 -286 0
32 -286 0
283 284 -285 0
-284 285 0
-283 285 0
26 28 284 0
-28 -284 0
-26 -284 0
-26 -28 283 0
28 -283 0
26 -283 0
280 281 -282 0
-281 282 0
-280 282 0
20 22 281 0
-22 -281 0
-20 -281 0
-20 -22 280 0
22 -280 0
20 -280 0
277 278 -279 0
-278 279 0
-277 279 0
14 16 278 0
-16 -278 0
-14 -278 0
-14 -16 277 0
16 -277 0
14 -277 0
274 275 -276 0
-275 276 0
-274 276 0
8 10 275 0
-10 -275 0
-8 -275 0
-8 -10 274 0
10 -274 0
8 -274 0
271 272 -273 0
-272 273 0
-271 273 0
2 4 272 0
-4 -272 0
-2 -272 0
-2 -4 271 0
4 -271 0
2 -271 0
-255 -258 -261 -264 -267 -270 0
268 269 -270 0
-269 270 0
-268 270 0
12 24 269 0
-24 -269 0
-12 -269 0
-12 -24 268 0
24 -268 0
12 -268 0
265 266 -267 0
-266 267 0
-265 267 0
11 23 266 0
-23 -266 0
-11 -266 0
-11 -23 265 0
23 -265 0
11 -265 0
262 263 -264 0
-263 264 0
-262 264 0
10 22 263 0
-22 -263 0
-10 -263 0
-10 -22 262 0
22 -262 0
10 -262 0
259 260 -261 0
-260 261 0
-259 261 0
9 21 260 0
-21 -260 0
-9 -260 0
-9 -21 259 0
21 -259 0
9 -259 0
256 257 -258 0
-257 258 0
-256 258 0
8 20 257 0
-20 -257 0
-8 -257 0
-8 -20 256 0
20 -256 0
8 -256 0
253 254 -255 0
-254 255 0
-253 255 0
7 19 254 0
-19 -254 0
-7 -254 0
-7 -19 253 0
19 -253 0
7 -253 0
-237 -240 -243 -246 -249 -252 0
250 251 -252 0
-251 252 0
-250 252 0
32 33 251 0
-33 -251 0
-32 -251 0
-32 -33 250 0
33 -250 0
32 -250 0
247 248 -249 0
-248 249 0
-247 249 0
26 27 248 0
-27 -248 0
-26 -248 0
-26 -27 247 0
27 -247 0
26 -247 0
244 245 -246 0
-245 246 0
-244 246 0
20 21 245 0
-21 -245 0
-20 -245 0
-20 -21 244 0
21 -244 0
20 -244 0
241 242 -243 0
-242 243 0
-241 243 0
14 15 242 0
-15 -242 0
-14 -242 0
-14 -15 241 0
15 -241 0
14 -241 0
238 239 -240 0
-239 240 0
-238 240 0
8 9 239 0
-9 -239 0
-8 -239 0
-8 -9 238 0
9 -238 0
8 -238 0
235 236 -237 0
-236 237 0
-235 237 0
2 3 236 0
-3 -236 0
-2 -236 0
-2 -3 235 0
3 -235 0
2 -235 0
-219 -222 -225 -228 -231 -234 0
232 233 -234 0
-233 234 0
-232 234 0
12 18 233 0
-18 -233 0
-12 -233 0
-12 -18 232 0
18 -232 0
12 -232 0
229 230 -231 0
-230 231 0
-229 231 0
11 17 230 0
-17 -230 0
-11 -230 0
-11 -17 229 0
17 -229 0
11 -229 0
226 227 -228 0
-227 228 0
-226 228 0
10 16 227 0
-16 -227 0
-10 -227 0
-10 -16 226 0
16 -226 0
10 -226 0
223 224 -225 0
-224 225 0
-223 225 0
9 15 224 0
-15 -224 0
-9 -224 0
-9 -15 223 0
15 -223 0
9 -223 0
220 221 -222 0
-221 222 0
-220 222 0
8 14 221 0
-14 -221 0
-8 -221 0
-8 -14 220 0
14 -220 0
8 -220 0
217 218 -219 0
-218 219 0
-217 219 0
7 13 218 0
-13 -218 0
-7 -218 0
-7 -13 217 0
13 -217 0
7 -217 0
-201 -204 -207 -210 -213 -216 0
214 215 -216 0
-215 216 0
-214 216 0
31 36 215 0
-36 -215 0
-31 -215 0
-31 -36 214 0
36 -214 0
31 -214 0
211 212 -213 0
-212 213 0
-211 213 0
25 30 212 0
-30 -212 0
-25 -212 0
-25 -30 211 0
30 -211 0
25 -211 0
208 209 -210 0
-209 210 0
-208 210 0
19 24 209 0
-24 -209 0
-19 -209 0
-19 -24 208 0
24 -208 0
19 -208 0
205 206 -207 0
-206 207 0
-205 207 0
13 18 206 0
-18 -206 0
-13 -206 0
-13 -18 205 0
18 -205 0
13 -205 0
202 203 -204 0
-203 204 0
-202 204 0
7 12 203 0
-12 -203 0
-7 -203 0
-7 -12 202 0
12 -202 0
7 -202 0
199 200 -201 0
-200 201 0
-199 201 0
1 6 200 0
-6 -200 0
-1 -200 0
-1 -6 199 0
6 -199 0
1 -199 0
-183 -186 -189 -192 -195 -198 0
196 197 -198 0
-197 198 0
-196 198 0
6 36 197 0
-36 -197 0
-6 -197 0
-6 -36 196 0
36 -196 0
6 -196 0
193 194 -195 0
-194 195 0
-193 195 0
5 35 194 0
-35 -194 0
-5 -194 0
-5 -35 193 0
35 -193 0
5 -193 0
190 191 -192 0
-191 192 0
-190 192 0
4 34 191 0
-34 -191 0
-4 -191 0
-4 -34 190 0
34 -190 0
4 -190 0
187 188 -189 0
-188 189 0
-187 189 0
3 33 188 0
-33 -188 0
-3 -188 0
-3 -33 187 0
33 -187 0
3 -187 0
184 185 -186 0
-185 186 0
-184 186 0
2 32 185 0
-32 -185 0
-2 -185 0
-2 -32 184 0
32 -184 0
2 -184 0
181 182 -183 0
-182 183 0
-181 183 0
1 31 182 0
-31 -182 0
-1 -182 0
-1 -31 181 0
31 -181 0
1 -181 0
-165 -168 -171 -174 -177 -180 0
178 179 -180 0
-179 180 0
-178 180 0
31 35 179 0
-35 -179 0
-31 -179 0
-31 -35 178 0
35 -178 0
31 -178 0
175 176 -177 0
-176 177 0
-175 177 0
25 29 176 0
-29 -176 0
-25 -176 0
-25 -29 175 0
29 -175 0
25 -175 0
172 173 -174 0
-173 174 0
-172 174 0
19 23 173 0
-23 -173 0
-19 -173 0
-19 -23 172 0
23 -172 0
19 -172 0
169 170 -171 0
-170 171 0
-169 171 0
13 17 170 0
-17 -170 0
-13 -170 0
-13 -17 169 0
17 -169 0
13 -169 0
166 167 -168 0
-167 168 0
-166 168 0
7 11 167 0
-11 -167 0
-7 -167 0
-7 -11 166 0
11 -166 0
7 -166 0
163 164 -165 0
-164 165 0
-163 165 0
1 5 164 0
-5 -164 0
-1 -164 0
-1 -5 163 0
5 -163 0
1 -163 0
-147 -150 -153 -156 -159 -162 0
160 161 -162 0
-161 162 0
-160 162 0
6 30 161 0
-30 -161 0
-6 -161 0
-6 -30 160 0
30 -160 0
6 -160 0
157 158 -159 0
-158 159 0
-157 159 0
5 29 158 0
-29 -158 0
-5 -158 0
-5 -29 157 0
29 -157 0
5 -157 0
154 155 -156 0
-155 156 0
-154 156 0
4 28 155 0
-28 -155 0
-4 -155 0
-4 -28 154 0
28 -154 0
4 -154 0
151 152 -153 0
-152 153 0
-151 153 0
3 27 152 0
-27 -152 0
-3 -152 0
-3 -27 151 0
27 -151 0
3 -151 0
148 149 -150 0
-149 150 0
-148 150 0
2 26 149 0
-26 -149 0
-2 -149 0
-2 -26 148 0
26 -148 0
2 -148 0
145 146 -147 0
-146 147 0
-145 147 0
1 25 146 0
-25 -146 0
-1 -146 0
-1 -25 145 0
25 -145 0
1 -145 0
-129 -132 -135 -138 -141 -144 0
142 143 -144 0
-143 144 0
-142 144 0
31 34 143 0
-34 -143 0
-31 -143 0
-31 -34 142 0
34 -142 0
31 -142 0
139 140 -141 0
-140 141 0
-139 141 0
25 28 140 0
-28 -140 0
-25 -140 0
-25 -28 139 0
28 -139 0
25 -139 0
136 137 -138 0
-137 138 0
-136 138 0
19 22 137 0
-22 -137 0
-19 -137 0
-19 -22 136 0
22 -136 0
19 -136 0
133 134 -135 0
-134 135 0
-133 135 0
13 16 134 0
-16 -134 0
-13 -134 0
-13 -16 133 0
16 -133 0
13 -133 0
130 131 -132 0
-131 132 0
-130 132 0
7 10 131 0
-10 -131 0
-7 -131 0
-7 -10 130 0
10 -130 0
7 -130 0
127 128 -129 0
-128 129 0
-127 129 0
1 4 128 0
-4 -128 0
-1 -128 0
-1 -4 127 0
4 -127 0
1 -127 0
-111 -114 -117 -120 -123 -126 0
124 125 -126 0
-125 126 0
-124 126 0
6 24 125 0
-24 -125 0
-6 -125 0
-6 -24 124 0
24 -124 0
6 -124 0
121 122 -123 0
-122 123 0
-121 123 0
5 23 122 0
-23 -122 0
-5 -122 0
-5 -23 121 0
23 -121 0
5 -121 0
118 119 -120 0
-119 120 0
-118 120 0
4 22 119 0
-22 -119 0
-4 -119 0
-4 -22 118 0
22 -118 0
4 -118 0
115 116 -117 0
-116 117 0
-115 117 0
3 21 116 0
-21 -116 0
-3 -116 0
-3 -21 115 0
21 -115 0
3 -115 0
112 113 -114 0
-113 114 0
-112 114 0
2 20 113 0
-20 -113 0
-2 -113 0
-2 -20 112 0
20 -112 0
2 -112 0
109 110 -111 0
-110 111 0
-109 111 0
1 19 110 0
-19 -110 0
-1 -110 0
-1 -19 109 0
19 -109 0
1 -109 0
-93 -96 -99 -102 -105 -108 0
106 107 -108 0
-107 108 0
-106 108 0
31 33 107 0
-33 -107 0
-31 -107 0
-31 -33 106 0
33 -106 0
31 -106 0
103 104 -105 0
-104 105 0
-103 105 0
25 27 104 0
-27 -104 0
-25 -104 0
-25 -27 103 0
27 -103 0
25 -103 0
100 101 -102 0
-101 102 0
-100 102 0
19 21 101 0
-21 -101 0
-19 -101 0
-19 -21 100 0
21 -100 0
19 -100 0
97 98 -99 0
-98 99 0
-97 99 0
13 15 98 0
-15 -98 0
-13 -98 0
-13 -15 97 0
15 -97 0
13 -97 0
94 95 -96 0
-95 96 0
-94 96 0
7 9 95 0
-9 -95 0
-7 -95 0
-7 -9 94 0
9 -94 0
7 -94 0
91 92 -93 0
-92 93 0
-91 93 0
1 3 92 0
-3 -92 0
-1 -92 0
-1 -3 91 0
3 -91 0
1 -91 0
-75 -78 -81 -84 -87 -90 0
88 89 -90 0
-89 90 0
-88 90 0
6 18 89 0
-18 -89 0
-6 -89 0
-6 -18 88 0
18 -88 0
6 -88 0
85 86 -87 0
-86 87 0
-85 87 0
5 17 86 0
-17 -86 0
-5 -86 0
-5 -17 85 0
17 -85 0
5 -85 0
82 83 -84 0
-83 84 0
-82 84 0
4 16 83 0
-16 -83 0
-4 -83 0
-4 -16 82 0
16 -82 0
4 -82 0
79 80 -81 0
-80 81 0
-79 81 0
3 15 80 0
-15 -80 0
-3 -80 0
-3 -15 79 0
15 -79 0
3 -79 0
76 77 -78 0
-77 78 0
-76 78 0
2 14 77 0
-14 -77 0
-2 -77 0
-2 -14 76 0
14 -76 0
2 -76 0
73 74 -75 0
-74 75 0
-73 75 0
1 13 74 0
-13 -74 0
-1 -74 0
-1 -13 73 0
13 -73 0
1 -73 0
-57 -60 -63 -66 -69 -72 0
70 71 -72 0
-71 72 0
-70 72 0
31 32 71 0
-32 -71 0
-31 -71 0
-31 -32 70 0
32 -70 0
31 -70 0
67 68 -69 0
-68 69 0
-67 69 0
25 26 68 0
-26 -68 0
-25 -68 0
-25 -26 67 0
26 -67 0
25 -67 0
64 65 -66 0
-65 66 0
-64 66 0
19 20 65 0
-20 -65 0
-19 -65 0
-19 -20 64 0
20 -64 0
19 -64 0
61 62 -63 0
-62 63 0
-61 63 0
13 14 62 0
-14 -62 0
-13 -62 0
-13 -14 61 0
14 -61 0
13 -61 0
58 59 -60 0
-59 60 0
-58 60 0
7 8 59 0
-8 -59 0
-7 -59 0
-7 -8 58 0
8 -58 0
7 -58 0
55 56 -57 0
-56 57 0
-55 57 0
1 2 56 0
-2 -56 0
-1 -56 0
-1 -2 55 0
2 -55 0
1 -55 0
-39 -42 -45 -48 -51 -54 0
52 53 -54 0
-53 54 0
-52 54 0
6 12 53 0
-12 -53 0
-6 -53 0
-6 -12 52 0
12 -52 0
6 -52 0
49 50 -51 0
-50 51 0
-49 51 0
5 11 50 0
-11 -50 0
-5 -50 0
-5 -11 49 0
11 -49 0
5 -49 0
46 47 -48 0
-47 48 0
-46 48 0
4 10 47 0
-10 -47 0
-4 -47 0
-4 -10 46 0
10 -46 0
4 -46 0
43 44 -45 0
-44 45 0
-43 45 0
3 9 44 0
-9 -44 0
-3 -44 0
-3 -9 43 0
9 -43 0
3 -43 0
40 41 -42 0
-41 42 0
-40 42 0
2 8 41 0
-8 -41 0
-2 -41 0
-2 -8 40 0
8 -40 0
2 -40 0
37 38 -39 0
-38 39 0
-37 39 0
1 7 38 0
-7 -38 0
-1 -38 0
-1 -7 37 0
7 -37 0
1 -37 0
-18 -24 -30 -36 0
18 24 30 36 0
-12 -24 -30 -36 0
12 24 30 36 0
-12 -18 -30 -36 0
12 18 30 36 0
-12 -18 -24 -36 0
12 18 24 36 0
-12 -18 -24 -30 0
12 18 24 30 0
-6 -24 -30 -36 0
6 24 30 36 0
-6 -18 -30 -36 0
6 18 30 36 0
-6 -18 -24 -36 0
6 18 24 36 0
-6 -18 -24 -30 0
6 18 24 30 0
-6 -12 -30 -36 0
6 12 30 36 0
-6 -12 -24 -36 0
6 12 24 36 0
-6 -12 -24 -30 0
6 12 24 30 0
-6 -12 -18 -36 0
6 12 18 36 0
-6 -12 -18 -30 0
6 12 18 30 0
-6 -12 -18 -24 0
6 12 18 24 0
-17 -23 -29 -35 0
17 23 29 35 0
-11 -23 -29 -35 0
11 23 29 35 0
-11 -17 -29 -35 0
11 17 29 35 0
-11 -17 -23 -35 0
11 17 23 35 0
-11 -17 -23 -29 0
11 17 23 29 0
-5 -23 -29 -35 0
5 23 29 35 0
-5 -17 -29 -35 0
5 17 29 35 0
-5 -17 -23 -35 0
5 17 23 35 0
-5 -17 -23 -29 0
5 17 23 29 0
-5 -11 -29 -35 0
5 11 29 35 0
-5 -11 -23 -35 0
5 11 23 35 0
-5 -11 -23 -29 0
5 11 23 29 0
-5 -11 -17 -35 0
5 11 17 35 0
-5 -11 -17 -29 0
5 11 17 29 0
-5 -11 -17 -23 0
5 11 17 23 0
-16 -22 -28 -34 0
16 22 28 34 0
-10 -22 -28 -34 0
10 22 28 34 0
-10 -16 -28 -34 0
10 16 28 34 0
-10 -16 -22 -34 0
10 16 22 34 0
-10 -16 -22 -28 0
10 16 22 28 0
-4 -22 -28 -34 0
4 22 28 34 0
-4 -16 -28 -34 0
4 16 28 34 0
-4 -16 -22 -34 0
4 16 22 34 0
-4 -16 -22 -28 0
4 16 22 28 0
-4 -10 -28 -34 0
4 10 28 34 0
-4 -10 -22 -34 0
4 10 22 34 0
-4 -10 -22 -28 0
4 10 22 28 0
-4 -10 -16 -34 0
4 10 16 34 0
-4 -10 -16 -28 0
4 10 16 28 0
-4 -10 -16 -22 0
4 10 16 22 0
-15 -21 -27 -33 0
15 21 27 33 0
-9 -21 -27 -33 0
9 21 27 33 0
-9 -15 -27 -33 0
9 15 27 33 0
-9 -15 -21 -33 0
9 15 21 33 0
-9 -15 -21 -27 0
9 15 21 27 0
-3 -21 -27 -33 0
3 21 27 33 0
-3 -15 -27 -33 0
3 15 27 33 0
-3 -15 -21 -33 0
3 15 21 33 0
-3 -15 -21 -27 0
3 15 21 27 0
-3 -9 -27 -33 0
3 9 27 33 0
-3 -9 -21 -33 0
3 9 21 33 0
-3 -9 -21 -27 0
3 9 21 27 0
-3 -9 -15 -33 0
3 9 15 33 0
-3 -9 -15 -27 0
3 9 15 27 0
-3 -9 -15 -21 0
3 9 15 21 0
-14 -20 -26 -32 0
14 20 26 32 0
-8 -20 -26 -32 0
8 20 26 32 0
-8 -14 -26 -32 0
8 14 26 32 0
-8 -14 -20 -32 0
8 14 20 32 0
-8 -14 -20 -26 0
8 14 20 26 0
-2 -20 -26 -32 0
2 20 26 32 0
-2 -14 -26 -32 0
2 14 26 32 0
-2 -14 -20 -32 0
2 14 20 32 0
-2 -14 -20 -26 0
2 14 20 26 0
-2 -8 -26 -32 0
2 8 26 32 0
-2 -8 -20 -32 0
2 8 20 32 0
-2 -8 -20 -26 0
2 8 20 26 0
-2 -8 -14 -32 0
2 8 14 32 0
-2 -8 -14 -26 0
2 8 14 26 0
-2 -8 -14 -20 0
2 8 14 20 0
-13 -19 -25 -31 0
13 19 25 31 0
-7 -19 -25 -31 0
7 19 25 31 0
-7 -13 -25 -31 0
7 13 25 31 0
-7 -13 -19 -31 0
7 13 19 31 0
-7 -13 -19 -25 0
7 13 19 25 0
-1 -19 -25 -31 0
1 19 25 31 0
-1 -13 -25 -31 0
1 13 25 31 0
-1 -13 -19 -31 0
1 13 19 31 0
-1 -13 -19 -25 0
1 13 19 25 0
-1 -7 -25 -31 0
1 7 25 31 0
-1 -7 -19 -31 0
1 7 19 31 0
-1 -7 -19 -25 0
1 7 19 25 0
-1 -7 -13 -31 0
1 7 13 31 0
-1 -7 -13 -25 0
1 7 13 25 0
-1 -7 -13 -19 0
1 7 13 19 0
-33 -34 -35 -36 0
33 34 35 36 0
-32 -34 -35 -36 0
32 34 35 36 0
-32 -33 -35 -36 0
32 33 35 36 0
-32 -33 -34 -36 0
32 33 34 36 0
-32 -33 -34 -35 0
32 33 34 35 0
-31 -34 -35 -36 0
31 34 35 36 0
-31 -33 -35 -36 0
31 33 35 36 0
-31 -33 -34 -36 0
31 33 34 36 0
-31 -33 -34 -35 0
31 33 34 35 0
-31 -32 -35 -36 0
31 32 35 36 0
-31 -32 -34 -36 0
31 32 34 36 0
-31 -32 -34 -35 0
31 32 34 35 0
-31 -32 -33 -36 0
31 32 33 36 0
-31 -32 -33 -35 0
31 32 33 35 0
-31 -32 -33 -34 0
31 32 33 34 0
-27 -28 -29 -30 0
27 28 29 30 0
-26 -28 -29 -30 0
26 28 29 30 0
-26 -27 -29 -30 0
26 27 29 30 0
-26 -27 -28 -30 0
26 27 28 30 0
-26 -27 -28 -29 0
26 27 28 29 0
-25 -28 -29 -30 0
25 28 29 30 0
-25 -27 -29 -30 0
25 27 29 30 0
-25 -27 -28 -30 0
25 27 28 30 0
-25 -27 -28 -29 0
25 27 28 29 0
-25 -26 -29 -30 0
25 26 29 30 0
-25 -26 -28 -30 0
25 26 28 30 0
-25 -26 -28 -29 0
25 26 28 29 0
-25 -26 -27 -30 0
25 26 27 30 0
-25 -26 -27 -29 0
25 26 27 29 0
-25 -26 -27 -28 0
25 26 27 28 0
-21 -22 -23 -24 0
21 22 23 24 0
-20 -22 -23 -24 0
20 22 23 24 0
-20 -21 -23 -24 0
20 21 23 24 0
-20 -21 -22 -24 0
20 21 22 24 0
-20 -21 -22 -23 0
20 21 22 23 0
-19 -22 -23 -24 0
19 22 23 24 0
-19 -21 -23 -24 0
19 21 23 24 0
-19 -21 -22 -24 0
19 21 22 24 0
-19 -21 -22 -23 0
19 21 22 23 0
-19 -20 -23 -24 0
19 20 23 24 0
-19 -20 -22 -24 0
19 20 22 24 0
-19 -20 -22 -23 0
19 20 22 23 0
-19 -20 -21 -24 0
19 20 21 24 0
-19 -20 -21 -23 0
19 20 21 23 0
-19 -20 -21 -22 0
19 20 21 22 0
-15 -16 -17 -18 0
15 16 17 18 0
-14 -16 -17 -18 0
14 16 17 18 0
-14 -15 -17 -18 0
14 15 17 18 0
-14 -15 -16 -18 0
14 15 16 18 0
-14 -15 -16 -17 0
14 15 16 17 0
-13 -16 -17 -18 0
13 16 17 18 0
-13 -15 -17 -18 0
13 15 17 18 0
-13 -15 -16 -18 0
13 15 16 18 0
-13 -15 -16 -17 0
13 15 16 17 0
-13 -14 -17 -18 0
13 14 17 18 0
-13 -14 -16 -18 0
13 14 16 18 0
-13 -14 -16 -17 0
13 14 16 17 0
-13 -14 -15 -18 0
13 14 15 18 0
-13 -14 -15 -17 0
13 14 15 17 0
-13 -14 -15 -16 0
13 14 15 16 0
-9 -10 -11 -12 0
9 10 11 12 0
-8 -10 -11 -12 0
8 10 11 12 0
-8 -9 -11 -12 0
8 9 11 12 0
-8 -9 -10 -12 0
8 9 10 12 0
-8 -9 -10 -11 0
8 9 10 11 0
-7 -10 -11 -12 0
7 10 11 12 0
-7 -9 -11 -12 0
7 9 11 12 0
-7 -9 -10 -12 0
7 9 10 12 0
-7 -9 -10 -11 0
7 9 10 11 0
-7 -8 -11 -12 0
7 8 11 12 0
-7 -8 -10 -12 0
7 8 10 12 0
-7 -8 -10 -11 0
7 8 10 11 0
-7 -8 -9 -12 0
7 8 9 12 0
-7 -8 -9 -11 0
7 8 9 11 0
-7 -8 -9 -10 0
7 8 9 10 0
-3 -4 -5 -6 0
3 4 5 6 0
-2 -4 -5 -6 0
2 4 5 6 0
-2 -3 -5 -6 0
2 3 5 6 0
-2 -3 -4 -6 0
2 3 4 6 0
-2 -3 -4 -5 0
2 3 4 5 0
-1 -4 -5 -6 0
1 4 5 6 0
-1 -3 -5 -6 0
1 3 5 6 0
-1 -3 -4 -6 0
1 3 4 6 0
-1 -3 -4 -5 0
1 3 4 5 0
-1 -2 -5 -6 0
1 2 5 6 0
-1 -2 -4 -6 0
1 2 4 6 0
-1 -2 -4 -5 0
1 2 4 5 0
-1 -2 -3 -6 0
1 2 3 6 0
-1 -2 -3 -5 0
1 2 3 5 0
-1 -2 -3 -4 0
1 2 3 4 0
-24 -30 -36 0
24 30 36 0
-18 -24 -30 0
18 24 30 0
-12 -18 -24 0
12 18 24 0
-6 -12 -18 0
6 12 18 0
-23 -29 -35 0
23 29 35 0
-17 -23 -29 0
17 23 29 0
-11 -17 -23 0
11 17 23 0
-5 -11 -17 0
5 11 17 0
-22 -28 -34 0
22 28 34 0
-16 -22 -28 0
16 22 28 0
-10 -16 -22 0
10 16 22 0
-4 -10 -16 0
4 10 16 0
-21 -27 -33 0
21 27 33 0
-15 -21 -27 0
15 21 27 0
-9 -15 -21 0
9 15 21 0
-3 -9 -15 0
3 9 15 0
-20 -26 -32 0
20 26 32 0
-14 -20 -26 0
14 20 26 0
-8 -14 -20 0
8 14 20 0
-2 -8 -14 0
2 8 14 0
-19 -25 -31 0
19 25 31 0
-13 -19 -25 0
13 19 25 0
-7 -13 -19 0
7 13 19 0
-1 -7 -13 0
1 7 13 0
-34 -35 -36 0
34 35 36 0
-33 -34 -35 0
33 34 35 0
-32 -33 -34 0
32 33 34 0
-31 -32 -33 0
31 32 33 0
-28 -29 -30 0
28 29 30 0
-27 -28 -29 0
27 28 29 0
-26 -27 -28 0
26 27 28 0
-25 -26 -27 0
25 26 27 0
-22 -23 -24 0
22 23 24 0
-21 -22 -23 0
21 22 23 0
-20 -21 -22 0
20 21 22 0
-19 -20 -21 0
19 20 21 0
-16 -17 -18 0
16 17 18 0
-15 -16 -17 0
15 16 17 0
-14 -15 -16 0
14 15 16 0
-13 -14 -15 0
13 14 15 0
-10 -11 -12 0
10 11 12 0
-9 -10 -11 0
9 10 11 0
-8 -9 -10 0
8 9 10 0
-7 -8 -9 0
7 8 9 0
-4 -5 -6 0
4 5 6 0
-3 -4 -5 0
3 4 5 0
-2 -3 -4 0
2 3 4 0
-1 -2 -3 0
1 2 3 0
-36 0
-35 0
34 0
33 0
29 0
-28 0
27 0
-26 0
-25 0
22 0
-21 0
20 0
19 0
17 0
-16 0
-15 0
14 0
-11 0
-10 0
9 0
-8 0
-6 0
4 0
-3 0
2 0
-1 0
